7002
13,74,123,31,27,129,144,49,147,72,145,136,112,64,44,71,45,115,150,21,78,15,59,79,121,88,94,10,113,63,30,84,7,8,89,96,35,124,93,126,52,105,111,16,133,80,14,122,77,131,32,23,38,67,109,43,116,101,39,57,41,117,140,60,66,17,130,148,11,61,36,69,127,118,24,12,53,40,139,47,110,120,42,37,9,28,6,19,2,29,81,25,20,51,138,134,33,92,54,46,90,83,141,86,135,70,108,99,114,102,137,50,58,55,65,132,85,142,18,75,26,56,146,97,143,100,5,107,95,82,103,98,1,87,34,76,73,48,3,62,149,125,22,104,4,128,68,119,91,106,13
